[2026-03-23T13:42:40.963Z] Pipeline "set_exp_2_exp_2_n029_c006_g002" → 2026_03_23_13_42_40_set_exp_2_exp_2_n029_c006_g002_max.sol
Set parameter WLSAccessID
Set parameter WLSSecret
Set parameter LicenseID to value 2792458
Set parameter LogFile to value "gurobi.log"
Using license file /root/gurobi.lic
Academic license 2792458 - for non-commercial use only - registered to an___@studenti.unipg.it

Gurobi Optimizer version 13.0.1 build v13.0.1rc0 (linux64 - "Ubuntu 24.04.4 LTS")
Copyright (c) 2026, Gurobi Optimization, LLC

Warning: Duplicate section found (read 'binary') - Is a variable name equal to an LP file format keyword?
Warning: Duplicate section found (read 'binary') - Is a variable name equal to an LP file format keyword?
Warning: Duplicate section found (read 'binary') - Is a variable name equal to an LP file format keyword?
Warning: Duplicate section found (read 'binary') - Is a variable name equal to an LP file format keyword?
Warning: Duplicate section found (read 'binary') - Is a variable name equal to an LP file format keyword?
Warning: Duplicate section found (read 'binary') - Is a variable name equal to an LP file format keyword?
Warning: Duplicate section found (read 'binary') - Is a variable name equal to an LP file format keyword?
Warning: Duplicate section found (read 'binary') - Is a variable name equal to an LP file format keyword?
Warning: Duplicate section found (read 'binary') - Is a variable name equal to an LP file format keyword?
Warning: Duplicate section found (read 'binary') - Is a variable name equal to an LP file format keyword?
Warning: Further warnings of this type will be omitted.
Read LP format model from file /root/bgw/data/uploads/2026_03_23_13_42_40_set_exp_2_exp_2_n029_c006_g002_max.lp
Reading time = 0.01 seconds
: 8019 rows, 577 columns, 24141 nonzeros

Using Gurobi shared library /opt/gurobi1301/linux64/lib/libgurobi.so.13.0.1

CPU model: AMD EPYC-Genoa Processor, instruction set [SSE2|AVX|AVX2|AVX512]
Thread count: 16 physical cores, 16 logical processors, using up to 16 threads

Academic license 2792458 - for non-commercial use only - registered to an___@studenti.unipg.it
Optimize a model with 8019 rows, 577 columns and 24141 nonzeros (Max)
Model fingerprint: 0x2c6f4a45
Model has 6 linear objective coefficients
Variable types: 35 continuous, 542 integer (542 binary)
Coefficient statistics:
  Matrix range     [1e+00, 3e+01]
  Objective range  [1e+00, 1e+00]
  Bounds range     [1e+00, 1e+00]
  RHS range        [1e+00, 3e+01]

Found heuristic solution: objective 6.0000000
Presolve removed 665 rows and 141 columns
Presolve time: 0.03s
Presolved: 7354 rows, 436 columns, 22426 nonzeros
Variable types: 0 continuous, 436 integer (422 binary)

Root relaxation: objective 2.400000e+01, 594 iterations, 0.05 seconds (0.06 work units)

    Nodes    |    Current Node    |     Objective Bounds      |     Work
 Expl Unexpl |  Obj  Depth IntInf | Incumbent    BestBd   Gap | It/Node Time

     0     0   24.00000    0   45    6.00000   24.00000   300%     -    0s
H    0     0                      14.0000000   24.00000  71.4%     -    0s
H    0     0                      15.0000000   24.00000  60.0%     -    0s
H    0     0                      16.0000000   24.00000  50.0%     -    0s
H    0     0                      17.0000000   24.00000  41.2%     -    0s
     0     0   24.00000    0   46   17.00000   24.00000  41.2%     -    0s
H    0     0                      18.0000000   24.00000  33.3%     -    0s
     0     0   24.00000    0   46   18.00000   24.00000  33.3%     -    0s
     0     0   24.00000    0   37   18.00000   24.00000  33.3%     -    0s
     0     0   24.00000    0   30   18.00000   24.00000  33.3%     -    0s
     0     0   24.00000    0   28   18.00000   24.00000  33.3%     -    0s
     0     0   24.00000    0   28   18.00000   24.00000  33.3%     -    0s
     0     0   24.00000    0   28   18.00000   24.00000  33.3%     -    0s
     0     0   24.00000    0   28   18.00000   24.00000  33.3%     -    0s
     0     0   24.00000    0   26   18.00000   24.00000  33.3%     -    0s
     0     0   24.00000    0   33   18.00000   24.00000  33.3%     -    0s
     0     0   24.00000    0   23   18.00000   24.00000  33.3%     -    0s
     0     0   24.00000    0   28   18.00000   24.00000  33.3%     -    0s
     0     0   24.00000    0   26   18.00000   24.00000  33.3%     -    0s
     0     0   24.00000    0   26   18.00000   24.00000  33.3%     -    0s
     0     0   24.00000    0   30   18.00000   24.00000  33.3%     -    0s
     0     0   24.00000    0   30   18.00000   24.00000  33.3%     -    0s
     0     0   24.00000    0   30   18.00000   24.00000  33.3%     -    0s
     0     0   24.00000    0   30   18.00000   24.00000  33.3%     -    0s
     0     0   24.00000    0   27   18.00000   24.00000  33.3%     -    0s
     0     0   24.00000    0   27   18.00000   24.00000  33.3%     -    0s
     0     0   24.00000    0   27   18.00000   24.00000  33.3%     -    0s
     0     2   24.00000    0   27   18.00000   24.00000  33.3%     -    0s

Cutting planes:
  Lift-and-project: 1
  Cover: 6
  MIR: 16
  Inf proof: 32
  Zero half: 3
  Mod-K: 4

Explored 966 nodes (73529 simplex iterations) in 1.96 seconds (2.28 work units)
Thread count was 16 (of 16 available processors)

Solution count 6: 18 17 16 ... 6

Optimal solution found (tolerance 1.00e-04)
Best objective 1.800000000000e+01, best bound 1.800000000000e+01, gap 0.0000%

Wrote result file '/root/bgw/data/results/2026_03_23_13_42_40_set_exp_2_exp_2_n029_c006_g002_max.sol'

